(declare-const in20 Int)
(declare-const in22 Int)
(declare-const in21 Int)
(declare-const in24 Int)
(declare-const in23 Int)
(declare-const in26 Int)
(declare-const in25 Int)
(declare-const in27 Int)
(declare-const in0 Int)
(declare-const in2 Int)
(declare-const in1 Int)
(declare-const in4 Int)
(declare-const in3 Int)
(declare-const in6 Int)
(declare-const in5 Int)
(declare-const in8 Int)
(declare-const in7 Int)
(declare-const in11 Int)
(declare-const in10 Int)
(declare-const in9 Int)
(declare-const in13 Int)
(declare-const in12 Int)
(declare-const in15 Int)
(declare-const in14 Int)
(declare-const in17 Int)
(declare-const in16 Int)
(declare-const in19 Int)
(declare-const in18 Int)

(assert (and (and (and (and (and (and (and (and (and (and (and (and (and (and (and (and (and (and (and (and (and (and (and (and (and (and (and  ( ==  in0 1)  ( ==  in1 0))  ( ==  in2 1))  ( ==  in3 0))  ( ==  in4 1))  ( ==  in5 0))  ( ==  in6 1))  ( ==  in7 0))  ( ==  in8 1))  ( ==  in9 0))  ( ==  in10 1))  ( ==  in11 0))  ( ==  in12 1))  ( ==  in13 0))  ( ==  in14 1))  ( ==  in15 0))  ( ==  in16 1))  ( ==  in17 0))  ( ==  in18 1))  ( ==  in19 0))  ( ==  in20 1))  ( ==  in21 0))  ( ==  in22 1))  ( ==  in23 0))  ( ==  in24 1))  ( ==  in25 0))  ( ==  in26 1))  ( ==  in27 0)))

(check-sat)
(get-model)